NAME F-JSSP-SDST
ROWS
 N  OBJ
 E  c0      
 E  c1      
 E  c2      
 E  c3      
 E  c4      
 E  c5      
 G  c6      
 G  c7      
 G  c8      
 G  c9      
 G  c10     
 G  c11     
 G  c12     
 G  c13     
 G  c14     
 L  c15     
 L  c16     
 L  c17     
 L  c18     
 L  c19     
 L  c20     
 L  c21     
 L  c22     
 L  c23     
 L  c24     
 L  c25     
 L  c26     
 G  c27     
 G  c28     
 G  c29     
 G  c30     
 G  c31     
 G  c32     
 G  c33     
 G  c34     
 G  c35     
 G  c36     
 G  c37     
 G  c38     
 G  c39     
 G  c40     
 G  c41     
 G  c42     
 G  c43     
 G  c44     
 G  c45     
 G  c46     
 G  c47     
 G  c48     
 G  c49     
 G  c50     
 G  c51     
 G  c52     
 G  c53     
 G  c54     
 G  c55     
 G  c56     
 G  c57     
 G  c58     
 G  c59     
 G  c60     
 G  c61     
 G  c62     
 G  c63     
 G  c64     
 G  c65     
 G  c66     
 G  c67     
 G  c68     
 G  c69     
 G  c70     
 G  c71     
 G  c72     
 G  c73     
 G  c74     
 G  c75     
 G  c76     
 G  c77     
 G  c78     
 G  c79     
 G  c80     
 G  c81     
 G  c82     
 G  c83     
 G  c84     
 G  c85     
 G  c86     
 G  c87     
 G  c88     
 G  c89     
 G  c90     
 G  c91     
 G  c92     
 G  c93     
 G  c94     
 G  c95     
 G  c96     
 G  c97     
 G  c98     
 G  c99     
 G  c100    
 G  c101    
 G  c102    
 G  c103    
 G  c104    
 G  c105    
 G  c106    
 G  c107    
 G  c108    
 G  c109    
 G  c110    
 G  c111    
 G  c112    
 G  c113    
 G  c114    
 E  c115    
COLUMNS
    MARKER    'MARKER'                 'INTORG'
    B0(17)    c0        1
    B0(17)    c6        -43
    B0(17)    c7        -71043
    B0(17)    c8        -43
    B0(17)    c15       -71000
    B0(17)    c27       -71000
    B0(17)    c28       -71000
    B0(17)    c31       -71000
    B0(17)    c32       -71000
    B0(17)    c35       -71000
    B0(17)    c36       -71000
    B0(17)    c39       -71000
    B0(17)    c40       -71000
    B0(17)    c43       -71000
    B0(17)    c44       -71000
    B0(17)    c47       -71000
    B0(17)    c48       -71000
    B1(17)    c0        1
    B1(17)    c6        -36
    B1(17)    c7        -36
    B1(17)    c8        -71036
    B1(17)    c16       -71000
    B1(17)    c29       -71000
    B1(17)    c30       -71000
    B1(17)    c33       -71000
    B1(17)    c34       -71000
    B1(17)    c37       -71000
    B1(17)    c38       -71000
    B1(17)    c41       -71000
    B1(17)    c42       -71000
    B1(17)    c45       -71000
    B1(17)    c46       -71000
    B1(17)    c49       -71000
    B1(17)    c50       -71000
    B2(16)    c1        1
    B2(16)    c7        -71000
    B2(16)    c17       -71000
    B2(16)    c27       -71000
    B2(16)    c28       -71000
    B2(16)    c47       -71000
    B2(16)    c48       -71000
    B2(16)    c51       -71000
    B2(16)    c52       -71000
    B2(16)    c55       -71000
    B2(16)    c56       -71000
    B2(16)    c59       -71000
    B2(16)    c60       -71000
    B2(16)    c63       -71000
    B2(16)    c64       -71000
    B2(16)    c115      -64
    B3(16)    c1        1
    B3(16)    c8        -71000
    B3(16)    c18       -71000
    B3(16)    c29       -71000
    B3(16)    c30       -71000
    B3(16)    c49       -71000
    B3(16)    c50       -71000
    B3(16)    c53       -71000
    B3(16)    c54       -71000
    B3(16)    c57       -71000
    B3(16)    c58       -71000
    B3(16)    c61       -71000
    B3(16)    c62       -71000
    B3(16)    c65       -71000
    B3(16)    c66       -71000
    B3(16)    c115      -71
    B4(18)    c2        1
    B4(18)    c9        -34
    B4(18)    c10       -71034
    B4(18)    c11       -34
    B4(18)    c19       -71000
    B4(18)    c31       -71000
    B4(18)    c32       -71000
    B4(18)    c51       -71000
    B4(18)    c52       -71000
    B4(18)    c67       -71000
    B4(18)    c68       -71000
    B4(18)    c71       -71000
    B4(18)    c72       -71000
    B4(18)    c75       -71000
    B4(18)    c76       -71000
    B4(18)    c79       -71000
    B4(18)    c80       -71000
    B4(18)    c99       -10
    B5(18)    c2        1
    B5(18)    c9        -53
    B5(18)    c10       -53
    B5(18)    c11       -71053
    B5(18)    c20       -71000
    B5(18)    c33       -71000
    B5(18)    c34       -71000
    B5(18)    c53       -71000
    B5(18)    c54       -71000
    B5(18)    c69       -71000
    B5(18)    c70       -71000
    B5(18)    c73       -71000
    B5(18)    c74       -71000
    B5(18)    c77       -71000
    B5(18)    c78       -71000
    B5(18)    c81       -71000
    B5(18)    c82       -71000
    B5(18)    c101      -10
    B6(17)    c3        1
    B6(17)    c10       -71000
    B6(17)    c21       -71000
    B6(17)    c35       -71000
    B6(17)    c36       -71000
    B6(17)    c55       -71000
    B6(17)    c56       -71000
    B6(17)    c67       -71000
    B6(17)    c68       -71000
    B6(17)    c79       -71000
    B6(17)    c80       -71000
    B6(17)    c83       -71000
    B6(17)    c84       -71000
    B6(17)    c87       -71000
    B6(17)    c88       -71000
    B6(17)    c103      -10
    B6(17)    c115      -36
    B7(17)    c3        1
    B7(17)    c11       -71000
    B7(17)    c22       -71000
    B7(17)    c37       -71000
    B7(17)    c38       -71000
    B7(17)    c57       -71000
    B7(17)    c58       -71000
    B7(17)    c69       -71000
    B7(17)    c70       -71000
    B7(17)    c81       -71000
    B7(17)    c82       -71000
    B7(17)    c85       -71000
    B7(17)    c86       -71000
    B7(17)    c89       -71000
    B7(17)    c90       -71000
    B7(17)    c105      -10
    B7(17)    c115      -21
    B8(13)    c4        1
    B8(13)    c12       -21
    B8(13)    c13       -71021
    B8(13)    c14       -21
    B8(13)    c23       -71000
    B8(13)    c39       -71000
    B8(13)    c40       -71000
    B8(13)    c59       -71000
    B8(13)    c60       -71000
    B8(13)    c71       -71000
    B8(13)    c72       -71000
    B8(13)    c83       -71000
    B8(13)    c84       -71000
    B9(13)    c4        1
    B9(13)    c12       -35
    B9(13)    c13       -35
    B9(13)    c14       -71035
    B9(13)    c24       -71000
    B9(13)    c41       -71000
    B9(13)    c42       -71000
    B9(13)    c61       -71000
    B9(13)    c62       -71000
    B9(13)    c73       -71000
    B9(13)    c74       -71000
    B9(13)    c85       -71000
    B9(13)    c86       -71000
    B10(12)   c5        1
    B10(12)   c13       -71000
    B10(12)   c25       -71000
    B10(12)   c43       -71000
    B10(12)   c44       -71000
    B10(12)   c63       -71000
    B10(12)   c64       -71000
    B10(12)   c75       -71000
    B10(12)   c76       -71000
    B10(12)   c87       -71000
    B10(12)   c88       -71000
    B10(12)   c115      -43
    B11(12)   c5        1
    B11(12)   c14       -71000
    B11(12)   c26       -71000
    B11(12)   c45       -71000
    B11(12)   c46       -71000
    B11(12)   c65       -71000
    B11(12)   c66       -71000
    B11(12)   c77       -71000
    B11(12)   c78       -71000
    B11(12)   c89       -71000
    B11(12)   c90       -71000
    B11(12)   c115      -37
    B12(0)    OBJ       0
    B13(4)    c27       -71000
    B13(4)    c28       71000
    B13(4)    c29       -71000
    B13(4)    c30       71000
    B14(4)    c31       -71000
    B14(4)    c32       71000
    B14(4)    c33       -71000
    B14(4)    c34       71000
    B15(4)    c35       -71000
    B15(4)    c36       71000
    B15(4)    c37       -71000
    B15(4)    c38       71000
    B16(4)    c39       -71000
    B16(4)    c40       71000
    B16(4)    c41       -71000
    B16(4)    c42       71000
    B17(4)    c43       -71000
    B17(4)    c44       71000
    B17(4)    c45       -71000
    B17(4)    c46       71000
    B18(4)    c47       -71000
    B18(4)    c48       71000
    B18(4)    c49       -71000
    B18(4)    c50       71000
    B19(0)    OBJ       0
    B20(4)    c51       -71000
    B20(4)    c52       71000
    B20(4)    c53       -71000
    B20(4)    c54       71000
    B21(4)    c55       -71000
    B21(4)    c56       71000
    B21(4)    c57       -71000
    B21(4)    c58       71000
    B22(4)    c59       -71000
    B22(4)    c60       71000
    B22(4)    c61       -71000
    B22(4)    c62       71000
    B23(4)    c63       -71000
    B23(4)    c64       71000
    B23(4)    c65       -71000
    B23(4)    c66       71000
    B24(0)    OBJ       0
    B25(0)    OBJ       0
    B26(0)    OBJ       0
    B27(4)    c67       -71000
    B27(4)    c68       71000
    B27(4)    c69       -71000
    B27(4)    c70       71000
    B28(4)    c71       -71000
    B28(4)    c72       71000
    B28(4)    c73       -71000
    B28(4)    c74       71000
    B29(4)    c75       -71000
    B29(4)    c76       71000
    B29(4)    c77       -71000
    B29(4)    c78       71000
    B30(0)    OBJ       0
    B31(0)    OBJ       0
    B32(4)    c79       -71000
    B32(4)    c80       71000
    B32(4)    c81       -71000
    B32(4)    c82       71000
    B33(0)    OBJ       0
    B34(4)    c83       -71000
    B34(4)    c84       71000
    B34(4)    c85       -71000
    B34(4)    c86       71000
    B35(4)    c87       -71000
    B35(4)    c88       71000
    B35(4)    c89       -71000
    B35(4)    c90       71000
    B36(0)    OBJ       0
    B37(0)    OBJ       0
    B38(0)    OBJ       0
    B39(0)    OBJ       0
    B40(0)    OBJ       0
    B41(0)    OBJ       0
    B42(0)    OBJ       0
    B43(0)    OBJ       0
    B44(0)    OBJ       0
    B45(0)    OBJ       0
    B46(0)    OBJ       0
    B47(0)    OBJ       0
    I48(18)   c6        -1
    I48(18)   c7        -1
    I48(18)   c8        -1
    I48(18)   c15       1
    I48(18)   c27       1
    I48(18)   c28       -1
    I48(18)   c31       1
    I48(18)   c32       -1
    I48(18)   c35       1
    I48(18)   c36       -1
    I48(18)   c39       1
    I48(18)   c40       -1
    I48(18)   c43       1
    I48(18)   c44       -1
    I48(18)   c47       -1
    I48(18)   c48       1
    I48(18)   c91       1
    I48(18)   c92       1
    I49(18)   c6        -1
    I49(18)   c7        -1
    I49(18)   c8        -1
    I49(18)   c16       1
    I49(18)   c29       1
    I49(18)   c30       -1
    I49(18)   c33       1
    I49(18)   c34       -1
    I49(18)   c37       1
    I49(18)   c38       -1
    I49(18)   c41       1
    I49(18)   c42       -1
    I49(18)   c45       1
    I49(18)   c46       -1
    I49(18)   c49       -1
    I49(18)   c50       1
    I49(18)   c93       1
    I49(18)   c94       1
    I50(19)   c6        1
    I50(19)   c7        1
    I50(19)   c8        1
    I50(19)   c17       1
    I50(19)   c27       -1
    I50(19)   c28       1
    I50(19)   c47       1
    I50(19)   c48       -1
    I50(19)   c51       1
    I50(19)   c52       -1
    I50(19)   c55       1
    I50(19)   c56       -1
    I50(19)   c59       1
    I50(19)   c60       -1
    I50(19)   c63       1
    I50(19)   c64       -1
    I50(19)   c95       1
    I50(19)   c96       1
    I50(19)   c115      -1
    I51(19)   c6        1
    I51(19)   c7        1
    I51(19)   c8        1
    I51(19)   c18       1
    I51(19)   c29       -1
    I51(19)   c30       1
    I51(19)   c49       1
    I51(19)   c50       -1
    I51(19)   c53       1
    I51(19)   c54       -1
    I51(19)   c57       1
    I51(19)   c58       -1
    I51(19)   c61       1
    I51(19)   c62       -1
    I51(19)   c65       1
    I51(19)   c66       -1
    I51(19)   c97       1
    I51(19)   c98       1
    I51(19)   c115      -1
    I52(18)   c9        -1
    I52(18)   c10       -1
    I52(18)   c11       -1
    I52(18)   c19       1
    I52(18)   c31       -1
    I52(18)   c32       1
    I52(18)   c51       -1
    I52(18)   c52       1
    I52(18)   c67       1
    I52(18)   c68       -1
    I52(18)   c71       1
    I52(18)   c72       -1
    I52(18)   c75       1
    I52(18)   c76       -1
    I52(18)   c79       -1
    I52(18)   c80       1
    I52(18)   c99       1
    I52(18)   c100      1
    I53(18)   c9        -1
    I53(18)   c10       -1
    I53(18)   c11       -1
    I53(18)   c20       1
    I53(18)   c33       -1
    I53(18)   c34       1
    I53(18)   c53       -1
    I53(18)   c54       1
    I53(18)   c69       1
    I53(18)   c70       -1
    I53(18)   c73       1
    I53(18)   c74       -1
    I53(18)   c77       1
    I53(18)   c78       -1
    I53(18)   c81       -1
    I53(18)   c82       1
    I53(18)   c101      1
    I53(18)   c102      1
    I54(19)   c9        1
    I54(19)   c10       1
    I54(19)   c11       1
    I54(19)   c21       1
    I54(19)   c35       -1
    I54(19)   c36       1
    I54(19)   c55       -1
    I54(19)   c56       1
    I54(19)   c67       -1
    I54(19)   c68       1
    I54(19)   c79       1
    I54(19)   c80       -1
    I54(19)   c83       1
    I54(19)   c84       -1
    I54(19)   c87       1
    I54(19)   c88       -1
    I54(19)   c103      1
    I54(19)   c104      1
    I54(19)   c115      -1
    I55(19)   c9        1
    I55(19)   c10       1
    I55(19)   c11       1
    I55(19)   c22       1
    I55(19)   c37       -1
    I55(19)   c38       1
    I55(19)   c57       -1
    I55(19)   c58       1
    I55(19)   c69       -1
    I55(19)   c70       1
    I55(19)   c81       1
    I55(19)   c82       -1
    I55(19)   c85       1
    I55(19)   c86       -1
    I55(19)   c89       1
    I55(19)   c90       -1
    I55(19)   c105      1
    I55(19)   c106      1
    I55(19)   c115      -1
    I56(14)   c12       -1
    I56(14)   c13       -1
    I56(14)   c14       -1
    I56(14)   c23       1
    I56(14)   c39       -1
    I56(14)   c40       1
    I56(14)   c59       -1
    I56(14)   c60       1
    I56(14)   c71       -1
    I56(14)   c72       1
    I56(14)   c83       -1
    I56(14)   c84       1
    I56(14)   c107      1
    I56(14)   c108      1
    I57(14)   c12       -1
    I57(14)   c13       -1
    I57(14)   c14       -1
    I57(14)   c24       1
    I57(14)   c41       -1
    I57(14)   c42       1
    I57(14)   c61       -1
    I57(14)   c62       1
    I57(14)   c73       -1
    I57(14)   c74       1
    I57(14)   c85       -1
    I57(14)   c86       1
    I57(14)   c109      1
    I57(14)   c110      1
    I58(15)   c12       1
    I58(15)   c13       1
    I58(15)   c14       1
    I58(15)   c25       1
    I58(15)   c43       -1
    I58(15)   c44       1
    I58(15)   c63       -1
    I58(15)   c64       1
    I58(15)   c75       -1
    I58(15)   c76       1
    I58(15)   c87       -1
    I58(15)   c88       1
    I58(15)   c111      1
    I58(15)   c112      1
    I58(15)   c115      -1
    I59(15)   c12       1
    I59(15)   c13       1
    I59(15)   c14       1
    I59(15)   c26       1
    I59(15)   c45       -1
    I59(15)   c46       1
    I59(15)   c65       -1
    I59(15)   c66       1
    I59(15)   c77       -1
    I59(15)   c78       1
    I59(15)   c89       -1
    I59(15)   c90       1
    I59(15)   c113      1
    I59(15)   c114      1
    I59(15)   c115      -1
    I60(1)    OBJ       1
    I60(1)    c115      1
    MARKER    'MARKER'                 'INTEND'
RHS
    RHS1      c0        1
    RHS1      c1        1
    RHS1      c2        1
    RHS1      c3        1
    RHS1      c4        1
    RHS1      c5        1
    RHS1      c7        -141997
    RHS1      c8        -141995
    RHS1      c10       -141995
    RHS1      c11       -141997
    RHS1      c13       -141996
    RHS1      c14       -141997
    RHS1      c27       -212933
    RHS1      c28       -141954
    RHS1      c29       -212926
    RHS1      c30       -141959
    RHS1      c31       -212963
    RHS1      c32       -141953
    RHS1      c33       -212943
    RHS1      c34       -141961
    RHS1      c35       -212960
    RHS1      c36       -141953
    RHS1      c37       -212976
    RHS1      c38       -141961
    RHS1      c39       -212975
    RHS1      c40       -141954
    RHS1      c41       -212961
    RHS1      c42       -141961
    RHS1      c43       -212954
    RHS1      c44       -141953
    RHS1      c45       -212959
    RHS1      c46       -141961
    RHS1      c47       -212954
    RHS1      c48       -141933
    RHS1      c49       -212959
    RHS1      c50       -141926
    RHS1      c51       -212962
    RHS1      c52       -141932
    RHS1      c53       -212944
    RHS1      c54       -141926
    RHS1      c55       -212961
    RHS1      c56       -141933
    RHS1      c57       -212976
    RHS1      c58       -141924
    RHS1      c59       -212976
    RHS1      c60       -141933
    RHS1      c61       -212960
    RHS1      c62       -141925
    RHS1      c63       -212952
    RHS1      c64       -141932
    RHS1      c65       -212959
    RHS1      c66       -141926
    RHS1      c67       -212960
    RHS1      c68       -141961
    RHS1      c69       -212976
    RHS1      c70       -141944
    RHS1      c71       -212976
    RHS1      c72       -141962
    RHS1      c73       -212961
    RHS1      c74       -141944
    RHS1      c75       -212954
    RHS1      c76       -141963
    RHS1      c77       -212959
    RHS1      c78       -141944
    RHS1      c79       -212961
    RHS1      c80       -141960
    RHS1      c81       -212944
    RHS1      c82       -141976
    RHS1      c83       -212975
    RHS1      c84       -141961
    RHS1      c85       -212960
    RHS1      c86       -141975
    RHS1      c87       -212953
    RHS1      c88       -141961
    RHS1      c89       -212959
    RHS1      c90       -141976
BOUNDS
 BV BND1      B0(17)  
 BV BND1      B1(17)  
 BV BND1      B2(16)  
 BV BND1      B3(16)  
 BV BND1      B4(18)  
 BV BND1      B5(18)  
 BV BND1      B6(17)  
 BV BND1      B7(17)  
 BV BND1      B8(13)  
 BV BND1      B9(13)  
 BV BND1      B10(12) 
 BV BND1      B11(12) 
 BV BND1      B12(0)  
 BV BND1      B13(4)  
 BV BND1      B14(4)  
 BV BND1      B15(4)  
 BV BND1      B16(4)  
 BV BND1      B17(4)  
 BV BND1      B18(4)  
 BV BND1      B19(0)  
 BV BND1      B20(4)  
 BV BND1      B21(4)  
 BV BND1      B22(4)  
 BV BND1      B23(4)  
 BV BND1      B24(0)  
 BV BND1      B25(0)  
 BV BND1      B26(0)  
 BV BND1      B27(4)  
 BV BND1      B28(4)  
 BV BND1      B29(4)  
 BV BND1      B30(0)  
 BV BND1      B31(0)  
 BV BND1      B32(4)  
 BV BND1      B33(0)  
 BV BND1      B34(4)  
 BV BND1      B35(4)  
 BV BND1      B36(0)  
 BV BND1      B37(0)  
 BV BND1      B38(0)  
 BV BND1      B39(0)  
 BV BND1      B40(0)  
 BV BND1      B41(0)  
 BV BND1      B42(0)  
 BV BND1      B43(0)  
 BV BND1      B44(0)  
 BV BND1      B45(0)  
 BV BND1      B46(0)  
 BV BND1      B47(0)  
 LI BND1      I48(18)   0
 LI BND1      I49(18)   0
 LI BND1      I50(19)   0
 LI BND1      I51(19)   0
 LI BND1      I52(18)   0
 LI BND1      I53(18)   0
 LI BND1      I54(19)   0
 LI BND1      I55(19)   0
 LI BND1      I56(14)   0
 LI BND1      I57(14)   0
 LI BND1      I58(15)   0
 LI BND1      I59(15)   0
 LI BND1      I60(1)    0
ENDATA
